c Gilbert's random graph G(n,p), whith n = 6 and p = 0.6
c p is the probability for the independent edges to exist
c
c seed id 1360866350
c
p edge 6 10
e 1 2
e 1 3
e 1 4
e 2 3
e 2 4
e 2 6
e 3 4
e 3 6
e 4 6
e 5 6
